(set-logic ALL)
(set-option :produce-models true)
(declare-sort BoundSet 0)
(declare-sort UnboundSet 0)
(set-option :finite-model-find true)
(declare-fun IsSymbolic (BoundSet) Bool)
(declare-fun IsSuicidal (BoundSet) Bool)
(declare-fun BecomesPoorer (BoundSet) Bool)
(assert (not (=> (exists ((a BoundSet)) (and (IsSymbolic a) (IsSuicidal a))) (exists ((b BoundSet)) (BecomesPoorer b)))))
(check-sat)
(get-model)